(set-option :produce-models true)
(set-logic QF_LRA)
(set-info :notes | Strip-packing problem.|)
(declare-fun x0 () Real)
(declare-fun y0 () Real)
(declare-fun x1 () Real)
(declare-fun y1 () Real)
(declare-fun x2 () Real)
(declare-fun y2 () Real)
(declare-fun x3 () Real)
(declare-fun y3 () Real)
(declare-fun x4 () Real)
(declare-fun y4 () Real)
(declare-fun x5 () Real)
(declare-fun y5 () Real)
(declare-fun x6 () Real)
(declare-fun y6 () Real)
(declare-fun x7 () Real)
(declare-fun y7 () Real)
(declare-fun x8 () Real)
(declare-fun y8 () Real)
(declare-fun x9 () Real)
(declare-fun y9 () Real)
(declare-fun x10 () Real)
(declare-fun y10 () Real)
(declare-fun x11 () Real)
(declare-fun y11 () Real)
(declare-fun x12 () Real)
(declare-fun y12 () Real)
(declare-fun x13 () Real)
(declare-fun y13 () Real)
(declare-fun x14 () Real)
(declare-fun y14 () Real)
(declare-fun z () Real)
(declare-fun c () Real)
(assert (and (= c z) (and (>= x0 0) 
(and (>= y0 0) 
(and (>= x1 0) 
(and (>= y1 0) 
(and (>= x2 0) 
(and (>= y2 0) 
(and (>= x3 0) 
(and (>= y3 0) 
(and (>= x4 0) 
(and (>= y4 0) 
(and (>= x5 0) 
(and (>= y5 0) 
(and (>= x6 0) 
(and (>= y6 0) 
(and (>= x7 0) 
(and (>= y7 0) 
(and (>= x8 0) 
(and (>= y8 0) 
(and (>= x9 0) 
(and (>= y9 0) 
(and (>= x10 0) 
(and (>= y10 0) 
(and (>= x11 0) 
(and (>= y11 0) 
(and (>= x12 0) 
(and (>= y12 0) 
(and (>= x13 0) 
(and (>= y13 0) 
(and (>= x14 0) 
(and (>= y14 0) 
(and (>= z 0) 
(and (>= c 0) 
(and (<= (+ x0 0.3235560465) z) 
(and (<= 0.9147586828 y0) 
(and (<= y0 1.0) 
(and (<= x0 (- 3.5706574851 0.3235560465)) 
(and (>= x0 0) 
(and (<= (+ x1 0.5697078555) z) 
(and (<= 0.772778896 y1) 
(and (<= y1 1.0) 
(and (<= x1 (- 3.5706574851 0.5697078555)) 
(and (>= x1 0) 
(and (<= (+ x2 0.3625888386) z) 
(and (<= 0.7575202458 y2) 
(and (<= y2 1.0) 
(and (<= x2 (- 3.5706574851 0.3625888386)) 
(and (>= x2 0) 
(and (<= (+ x3 0.5024634312) z) 
(and (<= 0.7338262769 y3) 
(and (<= y3 1.0) 
(and (<= x3 (- 3.5706574851 0.5024634312)) 
(and (>= x3 0) 
(and (<= (+ x4 0.914811935) z) 
(and (<= 0.6826210825 y4) 
(and (<= y4 1.0) 
(and (<= x4 (- 3.5706574851 0.914811935)) 
(and (>= x4 0) 
(and (<= (+ x5 0.0202771474) z) 
(and (<= 0.6806613563 y5) 
(and (<= y5 1.0) 
(and (<= x5 (- 3.5706574851 0.0202771474)) 
(and (>= x5 0) 
(and (<= (+ x6 0.6710808054) z) 
(and (<= 0.3962154769 y6) 
(and (<= y6 1.0) 
(and (<= x6 (- 3.5706574851 0.6710808054)) 
(and (>= x6 0) 
(and (<= (+ x7 0.3925057916) z) 
(and (<= 0.3650112443 y7) 
(and (<= y7 1.0) 
(and (<= x7 (- 3.5706574851 0.3925057916)) 
(and (>= x7 0) 
(and (<= (+ x8 0.2061714255) z) 
(and (<= 0.3568764118 y8) 
(and (<= y8 1.0) 
(and (<= x8 (- 3.5706574851 0.2061714255)) 
(and (>= x8 0) 
(and (<= (+ x9 0.3068522393) z) 
(and (<= 0.1750962858 y9) 
(and (<= y9 1.0) 
(and (<= x9 (- 3.5706574851 0.3068522393)) 
(and (>= x9 0) 
(and (<= (+ x10 0.8466824714) z) 
(and (<= 0.1747261502 y10) 
(and (<= y10 1.0) 
(and (<= x10 (- 3.5706574851 0.8466824714)) 
(and (>= x10 0) 
(and (<= (+ x11 0.7338198289) z) 
(and (<= 0.0699827862 y11) 
(and (<= y11 1.0) 
(and (<= x11 (- 3.5706574851 0.7338198289)) 
(and (>= x11 0) 
(and (<= (+ x12 0.0846078401) z) 
(and (<= 0.0375467832 y12) 
(and (<= y12 1.0) 
(and (<= x12 (- 3.5706574851 0.0846078401)) 
(and (>= x12 0) 
(and (<= (+ x13 0.52683142) z) 
(and (<= 0.0296638509 y13) 
(and (<= y13 1.0) 
(and (<= x13 (- 3.5706574851 0.52683142)) 
(and (>= x13 0) 
(and (<= (+ x14 0.8110310132) z) 
(and (<= 0.0276247497 y14) 
(and (<= y14 1.0) 
(and (<= x14 (- 3.5706574851 0.8110310132)) 
(and (>= x14 0) 
(and (<= c 3.5706574851) 
(and (or (<= (+ x0 0.3235560465) x1) (or (<= (+ x1 0.5697078555) x0) (or (>= (- y0 0.9147586828) y1) (or (>= (- y1 0.772778896) y0))))) 
(and (or (<= (+ x0 0.3235560465) x2) (or (<= (+ x2 0.3625888386) x0) (or (>= (- y0 0.9147586828) y2) (or (>= (- y2 0.7575202458) y0))))) 
(and (or (<= (+ x0 0.3235560465) x3) (or (<= (+ x3 0.5024634312) x0) (or (>= (- y0 0.9147586828) y3) (or (>= (- y3 0.7338262769) y0))))) 
(and (or (<= (+ x0 0.3235560465) x4) (or (<= (+ x4 0.914811935) x0) (or (>= (- y0 0.9147586828) y4) (or (>= (- y4 0.6826210825) y0))))) 
(and (or (<= (+ x0 0.3235560465) x5) (or (<= (+ x5 0.0202771474) x0) (or (>= (- y0 0.9147586828) y5) (or (>= (- y5 0.6806613563) y0))))) 
(and (or (<= (+ x0 0.3235560465) x6) (or (<= (+ x6 0.6710808054) x0) (or (>= (- y0 0.9147586828) y6) (or (>= (- y6 0.3962154769) y0))))) 
(and (or (<= (+ x0 0.3235560465) x7) (or (<= (+ x7 0.3925057916) x0) (or (>= (- y0 0.9147586828) y7) (or (>= (- y7 0.3650112443) y0))))) 
(and (or (<= (+ x0 0.3235560465) x8) (or (<= (+ x8 0.2061714255) x0) (or (>= (- y0 0.9147586828) y8) (or (>= (- y8 0.3568764118) y0))))) 
(and (or (<= (+ x0 0.3235560465) x9) (or (<= (+ x9 0.3068522393) x0) (or (>= (- y0 0.9147586828) y9) (or (>= (- y9 0.1750962858) y0))))) 
(and (or (<= (+ x0 0.3235560465) x10) (or (<= (+ x10 0.8466824714) x0) (or (>= (- y0 0.9147586828) y10) (or (>= (- y10 0.1747261502) y0))))) 
(and (or (<= (+ x0 0.3235560465) x11) (or (<= (+ x11 0.7338198289) x0) (or (>= (- y0 0.9147586828) y11) (or (>= (- y11 0.0699827862) y0))))) 
(and (or (<= (+ x0 0.3235560465) x12) (or (<= (+ x12 0.0846078401) x0) (or (>= (- y0 0.9147586828) y12) (or (>= (- y12 0.0375467832) y0))))) 
(and (or (<= (+ x0 0.3235560465) x13) (or (<= (+ x13 0.52683142) x0) (or (>= (- y0 0.9147586828) y13) (or (>= (- y13 0.0296638509) y0))))) 
(and (or (<= (+ x0 0.3235560465) x14) (or (<= (+ x14 0.8110310132) x0) (or (>= (- y0 0.9147586828) y14) (or (>= (- y14 0.0276247497) y0))))) 
(and (or (<= (+ x1 0.5697078555) x2) (or (<= (+ x2 0.3625888386) x1) (or (>= (- y1 0.772778896) y2) (or (>= (- y2 0.7575202458) y1))))) 
(and (or (<= (+ x1 0.5697078555) x3) (or (<= (+ x3 0.5024634312) x1) (or (>= (- y1 0.772778896) y3) (or (>= (- y3 0.7338262769) y1))))) 
(and (or (<= (+ x1 0.5697078555) x4) (or (<= (+ x4 0.914811935) x1) (or (>= (- y1 0.772778896) y4) (or (>= (- y4 0.6826210825) y1))))) 
(and (or (<= (+ x1 0.5697078555) x5) (or (<= (+ x5 0.0202771474) x1) (or (>= (- y1 0.772778896) y5) (or (>= (- y5 0.6806613563) y1))))) 
(and (or (<= (+ x1 0.5697078555) x6) (or (<= (+ x6 0.6710808054) x1) (or (>= (- y1 0.772778896) y6) (or (>= (- y6 0.3962154769) y1))))) 
(and (or (<= (+ x1 0.5697078555) x7) (or (<= (+ x7 0.3925057916) x1) (or (>= (- y1 0.772778896) y7) (or (>= (- y7 0.3650112443) y1))))) 
(and (or (<= (+ x1 0.5697078555) x8) (or (<= (+ x8 0.2061714255) x1) (or (>= (- y1 0.772778896) y8) (or (>= (- y8 0.3568764118) y1))))) 
(and (or (<= (+ x1 0.5697078555) x9) (or (<= (+ x9 0.3068522393) x1) (or (>= (- y1 0.772778896) y9) (or (>= (- y9 0.1750962858) y1))))) 
(and (or (<= (+ x1 0.5697078555) x10) (or (<= (+ x10 0.8466824714) x1) (or (>= (- y1 0.772778896) y10) (or (>= (- y10 0.1747261502) y1))))) 
(and (or (<= (+ x1 0.5697078555) x11) (or (<= (+ x11 0.7338198289) x1) (or (>= (- y1 0.772778896) y11) (or (>= (- y11 0.0699827862) y1))))) 
(and (or (<= (+ x1 0.5697078555) x12) (or (<= (+ x12 0.0846078401) x1) (or (>= (- y1 0.772778896) y12) (or (>= (- y12 0.0375467832) y1))))) 
(and (or (<= (+ x1 0.5697078555) x13) (or (<= (+ x13 0.52683142) x1) (or (>= (- y1 0.772778896) y13) (or (>= (- y13 0.0296638509) y1))))) 
(and (or (<= (+ x1 0.5697078555) x14) (or (<= (+ x14 0.8110310132) x1) (or (>= (- y1 0.772778896) y14) (or (>= (- y14 0.0276247497) y1))))) 
(and (or (<= (+ x2 0.3625888386) x3) (or (<= (+ x3 0.5024634312) x2) (or (>= (- y2 0.7575202458) y3) (or (>= (- y3 0.7338262769) y2))))) 
(and (or (<= (+ x2 0.3625888386) x4) (or (<= (+ x4 0.914811935) x2) (or (>= (- y2 0.7575202458) y4) (or (>= (- y4 0.6826210825) y2))))) 
(and (or (<= (+ x2 0.3625888386) x5) (or (<= (+ x5 0.0202771474) x2) (or (>= (- y2 0.7575202458) y5) (or (>= (- y5 0.6806613563) y2))))) 
(and (or (<= (+ x2 0.3625888386) x6) (or (<= (+ x6 0.6710808054) x2) (or (>= (- y2 0.7575202458) y6) (or (>= (- y6 0.3962154769) y2))))) 
(and (or (<= (+ x2 0.3625888386) x7) (or (<= (+ x7 0.3925057916) x2) (or (>= (- y2 0.7575202458) y7) (or (>= (- y7 0.3650112443) y2))))) 
(and (or (<= (+ x2 0.3625888386) x8) (or (<= (+ x8 0.2061714255) x2) (or (>= (- y2 0.7575202458) y8) (or (>= (- y8 0.3568764118) y2))))) 
(and (or (<= (+ x2 0.3625888386) x9) (or (<= (+ x9 0.3068522393) x2) (or (>= (- y2 0.7575202458) y9) (or (>= (- y9 0.1750962858) y2))))) 
(and (or (<= (+ x2 0.3625888386) x10) (or (<= (+ x10 0.8466824714) x2) (or (>= (- y2 0.7575202458) y10) (or (>= (- y10 0.1747261502) y2))))) 
(and (or (<= (+ x2 0.3625888386) x11) (or (<= (+ x11 0.7338198289) x2) (or (>= (- y2 0.7575202458) y11) (or (>= (- y11 0.0699827862) y2))))) 
(and (or (<= (+ x2 0.3625888386) x12) (or (<= (+ x12 0.0846078401) x2) (or (>= (- y2 0.7575202458) y12) (or (>= (- y12 0.0375467832) y2))))) 
(and (or (<= (+ x2 0.3625888386) x13) (or (<= (+ x13 0.52683142) x2) (or (>= (- y2 0.7575202458) y13) (or (>= (- y13 0.0296638509) y2))))) 
(and (or (<= (+ x2 0.3625888386) x14) (or (<= (+ x14 0.8110310132) x2) (or (>= (- y2 0.7575202458) y14) (or (>= (- y14 0.0276247497) y2))))) 
(and (or (<= (+ x3 0.5024634312) x4) (or (<= (+ x4 0.914811935) x3) (or (>= (- y3 0.7338262769) y4) (or (>= (- y4 0.6826210825) y3))))) 
(and (or (<= (+ x3 0.5024634312) x5) (or (<= (+ x5 0.0202771474) x3) (or (>= (- y3 0.7338262769) y5) (or (>= (- y5 0.6806613563) y3))))) 
(and (or (<= (+ x3 0.5024634312) x6) (or (<= (+ x6 0.6710808054) x3) (or (>= (- y3 0.7338262769) y6) (or (>= (- y6 0.3962154769) y3))))) 
(and (or (<= (+ x3 0.5024634312) x7) (or (<= (+ x7 0.3925057916) x3) (or (>= (- y3 0.7338262769) y7) (or (>= (- y7 0.3650112443) y3))))) 
(and (or (<= (+ x3 0.5024634312) x8) (or (<= (+ x8 0.2061714255) x3) (or (>= (- y3 0.7338262769) y8) (or (>= (- y8 0.3568764118) y3))))) 
(and (or (<= (+ x3 0.5024634312) x9) (or (<= (+ x9 0.3068522393) x3) (or (>= (- y3 0.7338262769) y9) (or (>= (- y9 0.1750962858) y3))))) 
(and (or (<= (+ x3 0.5024634312) x10) (or (<= (+ x10 0.8466824714) x3) (or (>= (- y3 0.7338262769) y10) (or (>= (- y10 0.1747261502) y3))))) 
(and (or (<= (+ x3 0.5024634312) x11) (or (<= (+ x11 0.7338198289) x3) (or (>= (- y3 0.7338262769) y11) (or (>= (- y11 0.0699827862) y3))))) 
(and (or (<= (+ x3 0.5024634312) x12) (or (<= (+ x12 0.0846078401) x3) (or (>= (- y3 0.7338262769) y12) (or (>= (- y12 0.0375467832) y3))))) 
(and (or (<= (+ x3 0.5024634312) x13) (or (<= (+ x13 0.52683142) x3) (or (>= (- y3 0.7338262769) y13) (or (>= (- y13 0.0296638509) y3))))) 
(and (or (<= (+ x3 0.5024634312) x14) (or (<= (+ x14 0.8110310132) x3) (or (>= (- y3 0.7338262769) y14) (or (>= (- y14 0.0276247497) y3))))) 
(and (or (<= (+ x4 0.914811935) x5) (or (<= (+ x5 0.0202771474) x4) (or (>= (- y4 0.6826210825) y5) (or (>= (- y5 0.6806613563) y4))))) 
(and (or (<= (+ x4 0.914811935) x6) (or (<= (+ x6 0.6710808054) x4) (or (>= (- y4 0.6826210825) y6) (or (>= (- y6 0.3962154769) y4))))) 
(and (or (<= (+ x4 0.914811935) x7) (or (<= (+ x7 0.3925057916) x4) (or (>= (- y4 0.6826210825) y7) (or (>= (- y7 0.3650112443) y4))))) 
(and (or (<= (+ x4 0.914811935) x8) (or (<= (+ x8 0.2061714255) x4) (or (>= (- y4 0.6826210825) y8) (or (>= (- y8 0.3568764118) y4))))) 
(and (or (<= (+ x4 0.914811935) x9) (or (<= (+ x9 0.3068522393) x4) (or (>= (- y4 0.6826210825) y9) (or (>= (- y9 0.1750962858) y4))))) 
(and (or (<= (+ x4 0.914811935) x10) (or (<= (+ x10 0.8466824714) x4) (or (>= (- y4 0.6826210825) y10) (or (>= (- y10 0.1747261502) y4))))) 
(and (or (<= (+ x4 0.914811935) x11) (or (<= (+ x11 0.7338198289) x4) (or (>= (- y4 0.6826210825) y11) (or (>= (- y11 0.0699827862) y4))))) 
(and (or (<= (+ x4 0.914811935) x12) (or (<= (+ x12 0.0846078401) x4) (or (>= (- y4 0.6826210825) y12) (or (>= (- y12 0.0375467832) y4))))) 
(and (or (<= (+ x4 0.914811935) x13) (or (<= (+ x13 0.52683142) x4) (or (>= (- y4 0.6826210825) y13) (or (>= (- y13 0.0296638509) y4))))) 
(and (or (<= (+ x4 0.914811935) x14) (or (<= (+ x14 0.8110310132) x4) (or (>= (- y4 0.6826210825) y14) (or (>= (- y14 0.0276247497) y4))))) 
(and (or (<= (+ x5 0.0202771474) x6) (or (<= (+ x6 0.6710808054) x5) (or (>= (- y5 0.6806613563) y6) (or (>= (- y6 0.3962154769) y5))))) 
(and (or (<= (+ x5 0.0202771474) x7) (or (<= (+ x7 0.3925057916) x5) (or (>= (- y5 0.6806613563) y7) (or (>= (- y7 0.3650112443) y5))))) 
(and (or (<= (+ x5 0.0202771474) x8) (or (<= (+ x8 0.2061714255) x5) (or (>= (- y5 0.6806613563) y8) (or (>= (- y8 0.3568764118) y5))))) 
(and (or (<= (+ x5 0.0202771474) x9) (or (<= (+ x9 0.3068522393) x5) (or (>= (- y5 0.6806613563) y9) (or (>= (- y9 0.1750962858) y5))))) 
(and (or (<= (+ x5 0.0202771474) x10) (or (<= (+ x10 0.8466824714) x5) (or (>= (- y5 0.6806613563) y10) (or (>= (- y10 0.1747261502) y5))))) 
(and (or (<= (+ x5 0.0202771474) x11) (or (<= (+ x11 0.7338198289) x5) (or (>= (- y5 0.6806613563) y11) (or (>= (- y11 0.0699827862) y5))))) 
(and (or (<= (+ x5 0.0202771474) x12) (or (<= (+ x12 0.0846078401) x5) (or (>= (- y5 0.6806613563) y12) (or (>= (- y12 0.0375467832) y5))))) 
(and (or (<= (+ x5 0.0202771474) x13) (or (<= (+ x13 0.52683142) x5) (or (>= (- y5 0.6806613563) y13) (or (>= (- y13 0.0296638509) y5))))) 
(and (or (<= (+ x5 0.0202771474) x14) (or (<= (+ x14 0.8110310132) x5) (or (>= (- y5 0.6806613563) y14) (or (>= (- y14 0.0276247497) y5))))) 
(and (or (<= (+ x6 0.6710808054) x7) (or (<= (+ x7 0.3925057916) x6) (or (>= (- y6 0.3962154769) y7) (or (>= (- y7 0.3650112443) y6))))) 
(and (or (<= (+ x6 0.6710808054) x8) (or (<= (+ x8 0.2061714255) x6) (or (>= (- y6 0.3962154769) y8) (or (>= (- y8 0.3568764118) y6))))) 
(and (or (<= (+ x6 0.6710808054) x9) (or (<= (+ x9 0.3068522393) x6) (or (>= (- y6 0.3962154769) y9) (or (>= (- y9 0.1750962858) y6))))) 
(and (or (<= (+ x6 0.6710808054) x10) (or (<= (+ x10 0.8466824714) x6) (or (>= (- y6 0.3962154769) y10) (or (>= (- y10 0.1747261502) y6))))) 
(and (or (<= (+ x6 0.6710808054) x11) (or (<= (+ x11 0.7338198289) x6) (or (>= (- y6 0.3962154769) y11) (or (>= (- y11 0.0699827862) y6))))) 
(and (or (<= (+ x6 0.6710808054) x12) (or (<= (+ x12 0.0846078401) x6) (or (>= (- y6 0.3962154769) y12) (or (>= (- y12 0.0375467832) y6))))) 
(and (or (<= (+ x6 0.6710808054) x13) (or (<= (+ x13 0.52683142) x6) (or (>= (- y6 0.3962154769) y13) (or (>= (- y13 0.0296638509) y6))))) 
(and (or (<= (+ x6 0.6710808054) x14) (or (<= (+ x14 0.8110310132) x6) (or (>= (- y6 0.3962154769) y14) (or (>= (- y14 0.0276247497) y6))))) 
(and (or (<= (+ x7 0.3925057916) x8) (or (<= (+ x8 0.2061714255) x7) (or (>= (- y7 0.3650112443) y8) (or (>= (- y8 0.3568764118) y7))))) 
(and (or (<= (+ x7 0.3925057916) x9) (or (<= (+ x9 0.3068522393) x7) (or (>= (- y7 0.3650112443) y9) (or (>= (- y9 0.1750962858) y7))))) 
(and (or (<= (+ x7 0.3925057916) x10) (or (<= (+ x10 0.8466824714) x7) (or (>= (- y7 0.3650112443) y10) (or (>= (- y10 0.1747261502) y7))))) 
(and (or (<= (+ x7 0.3925057916) x11) (or (<= (+ x11 0.7338198289) x7) (or (>= (- y7 0.3650112443) y11) (or (>= (- y11 0.0699827862) y7))))) 
(and (or (<= (+ x7 0.3925057916) x12) (or (<= (+ x12 0.0846078401) x7) (or (>= (- y7 0.3650112443) y12) (or (>= (- y12 0.0375467832) y7))))) 
(and (or (<= (+ x7 0.3925057916) x13) (or (<= (+ x13 0.52683142) x7) (or (>= (- y7 0.3650112443) y13) (or (>= (- y13 0.0296638509) y7))))) 
(and (or (<= (+ x7 0.3925057916) x14) (or (<= (+ x14 0.8110310132) x7) (or (>= (- y7 0.3650112443) y14) (or (>= (- y14 0.0276247497) y7))))) 
(and (or (<= (+ x8 0.2061714255) x9) (or (<= (+ x9 0.3068522393) x8) (or (>= (- y8 0.3568764118) y9) (or (>= (- y9 0.1750962858) y8))))) 
(and (or (<= (+ x8 0.2061714255) x10) (or (<= (+ x10 0.8466824714) x8) (or (>= (- y8 0.3568764118) y10) (or (>= (- y10 0.1747261502) y8))))) 
(and (or (<= (+ x8 0.2061714255) x11) (or (<= (+ x11 0.7338198289) x8) (or (>= (- y8 0.3568764118) y11) (or (>= (- y11 0.0699827862) y8))))) 
(and (or (<= (+ x8 0.2061714255) x12) (or (<= (+ x12 0.0846078401) x8) (or (>= (- y8 0.3568764118) y12) (or (>= (- y12 0.0375467832) y8))))) 
(and (or (<= (+ x8 0.2061714255) x13) (or (<= (+ x13 0.52683142) x8) (or (>= (- y8 0.3568764118) y13) (or (>= (- y13 0.0296638509) y8))))) 
(and (or (<= (+ x8 0.2061714255) x14) (or (<= (+ x14 0.8110310132) x8) (or (>= (- y8 0.3568764118) y14) (or (>= (- y14 0.0276247497) y8))))) 
(and (or (<= (+ x9 0.3068522393) x10) (or (<= (+ x10 0.8466824714) x9) (or (>= (- y9 0.1750962858) y10) (or (>= (- y10 0.1747261502) y9))))) 
(and (or (<= (+ x9 0.3068522393) x11) (or (<= (+ x11 0.7338198289) x9) (or (>= (- y9 0.1750962858) y11) (or (>= (- y11 0.0699827862) y9))))) 
(and (or (<= (+ x9 0.3068522393) x12) (or (<= (+ x12 0.0846078401) x9) (or (>= (- y9 0.1750962858) y12) (or (>= (- y12 0.0375467832) y9))))) 
(and (or (<= (+ x9 0.3068522393) x13) (or (<= (+ x13 0.52683142) x9) (or (>= (- y9 0.1750962858) y13) (or (>= (- y13 0.0296638509) y9))))) 
(and (or (<= (+ x9 0.3068522393) x14) (or (<= (+ x14 0.8110310132) x9) (or (>= (- y9 0.1750962858) y14) (or (>= (- y14 0.0276247497) y9))))) 
(and (or (<= (+ x10 0.8466824714) x11) (or (<= (+ x11 0.7338198289) x10) (or (>= (- y10 0.1747261502) y11) (or (>= (- y11 0.0699827862) y10))))) 
(and (or (<= (+ x10 0.8466824714) x12) (or (<= (+ x12 0.0846078401) x10) (or (>= (- y10 0.1747261502) y12) (or (>= (- y12 0.0375467832) y10))))) 
(and (or (<= (+ x10 0.8466824714) x13) (or (<= (+ x13 0.52683142) x10) (or (>= (- y10 0.1747261502) y13) (or (>= (- y13 0.0296638509) y10))))) 
(and (or (<= (+ x10 0.8466824714) x14) (or (<= (+ x14 0.8110310132) x10) (or (>= (- y10 0.1747261502) y14) (or (>= (- y14 0.0276247497) y10))))) 
(and (or (<= (+ x11 0.7338198289) x12) (or (<= (+ x12 0.0846078401) x11) (or (>= (- y11 0.0699827862) y12) (or (>= (- y12 0.0375467832) y11))))) 
(and (or (<= (+ x11 0.7338198289) x13) (or (<= (+ x13 0.52683142) x11) (or (>= (- y11 0.0699827862) y13) (or (>= (- y13 0.0296638509) y11))))) 
(and (or (<= (+ x11 0.7338198289) x14) (or (<= (+ x14 0.8110310132) x11) (or (>= (- y11 0.0699827862) y14) (or (>= (- y14 0.0276247497) y11))))) 
(and (or (<= (+ x12 0.0846078401) x13) (or (<= (+ x13 0.52683142) x12) (or (>= (- y12 0.0375467832) y13) (or (>= (- y13 0.0296638509) y12))))) 
(and (or (<= (+ x12 0.0846078401) x14) (or (<= (+ x14 0.8110310132) x12) (or (>= (- y12 0.0375467832) y14) (or (>= (- y14 0.0276247497) y12))))) 
(and (or (<= (+ x13 0.52683142) x14) (or (<= (+ x14 0.8110310132) x13) (or (>= (- y13 0.0296638509) y14) (or (>= (- y14 0.0276247497) y13))))) )))))))))))))))))))))))))))))))))))))))))))))))))))))))))))))))))))))))))))))))))))))))))))))))))))))))))))))))))))))))))))))))))))))))))))))))))))))))))))))))))))))))))))))))))))))))))))))))))))))))))))))))))))))))
(minimize c)
(check-sat)
(get-objectives)
(exit)
